CPXPARAM_Read_DataCheck                          1
CPXPARAM_Barrier_Display                         2
CPXPARAM_Barrier_QCPConvergeTol                  9.9999999999999998e-13
Tried aggregator 1 time.
QCP Presolve eliminated 1 rows and 1 columns.
Aggregator did 6 substitutions.
Reduced QCP has 136253 rows, 128069 columns, and 320936 nonzeros.
Reduced QCP has 1 quadratic constraints.
Presolve time = 0.17 sec. (186.46 ticks)
Parallel mode: using up to 8 threads for barrier.
Looking for dense columns with more than 6 nonzeros.

***NOTE: Found 1 dense columns.

Number of nonzeros in lower triangle of A*A' = 373769
Using Approximate Minimum Degree ordering
Total time for automatic ordering = 0.23 sec. (112.69 ticks)
Summary statistics for Cholesky factor:
  Threads                   = 8
  Rows in Factor            = 136253
  Integer space required    = 324369
  Total non-zeros in factor = 1229773
  Total FP ops to factor    = 99547343
L has 66155 super-nodes.
Histogram of super-node widths:
SupWidth:      1      2      3      4      5      6      7      8      9
  Number:   2156  62695    753    289     44     22     20     16     12

SupWidth:     10     11     12     13     14     15     16     17     18
  Number:     11      9     11      5     16      6      8      6      5

SupWidth:     19     20     21     22     23     24     25     26     27
  Number:      3      5      4      2      2      3      2      1      1

SupWidth:     28     29     30     33     34     41     42     44     47
  Number:      1      1      1      2      2      1      1      2      3

SupWidth:     48     49     50     51     55     58     59     61     62
  Number:      1      1      1      1      2      1      2      2      2

SupWidth:     63     64     65     68     70     71     74     75     77
  Number:      1      3      3      1      1      1      1      1      1

SupWidth:     84     85     89     99    101    109    218
  Number:      1      2      1      1      1      1      1

 Itn      Primal Obj        Dual Obj  Prim Inf Upper Inf  Dual Inf Inf Ratio
   0   1.6923391e+07   0.0000000e+00  1.39e+09  0.00e+00  1.69e+07  1.00e+00
       0.13s (62.68 ticks) for iteration (0.03s, 3074 Mflops for lin. solve)
   1   1.6926019e+07   2.6520050e+03  1.39e+09  0.00e+00  1.69e+07  8.64e-01
       0.17s (113.00 ticks) for iteration (0.03s, 3038 Mflops for lin. solve)
   2   1.7078227e+07   1.5490339e+05  1.39e+09  0.00e+00  1.69e+07  8.37e-01
       0.17s (116.22 ticks) for iteration (0.03s, 3101 Mflops for lin. solve)
   3   1.6864296e+07  -5.9077934e+04  1.39e+09  0.00e+00  1.69e+07  8.12e-01
       0.17s (116.22 ticks) for iteration (0.03s, 3059 Mflops for lin. solve)
   4   1.8985684e+07   2.0632321e+06  1.39e+09  0.00e+00  1.69e+07  2.07e-01
       0.18s (116.60 ticks) for iteration (0.04s, 2700 Mflops for lin. solve)
   5   3.0997136e+07   1.4080458e+07  1.39e+09  0.00e+00  1.69e+07  6.15e-02
       0.18s (116.98 ticks) for iteration (0.03s, 2985 Mflops for lin. solve)
   6   8.2277131e+07   6.5395082e+07  1.39e+09  0.00e+00  1.69e+07  1.91e-02
       0.18s (116.98 ticks) for iteration (0.03s, 2950 Mflops for lin. solve)
   7   2.0043890e+08   1.8367643e+08  1.38e+09  0.00e+00  1.69e+07  6.28e-03
       0.17s (116.22 ticks) for iteration (0.03s, 2998 Mflops for lin. solve)
   8   2.3010801e+08   2.1339827e+08  1.37e+09  0.00e+00  1.68e+07  4.97e-03
       0.17s (116.22 ticks) for iteration (0.03s, 3055 Mflops for lin. solve)
   9   2.9505687e+08   2.7844345e+08  1.37e+09  0.00e+00  1.67e+07  3.54e-03
       0.18s (116.22 ticks) for iteration (0.03s, 2914 Mflops for lin. solve)
  10   3.7828520e+08   3.6176911e+08  1.36e+09  0.00e+00  1.66e+07  2.67e-03
       0.26s (165.11 ticks) for iteration (0.04s, 2772 Mflops for lin. solve)
  11   4.7619722e+08   4.5977430e+08  1.35e+09  0.00e+00  1.65e+07  2.12e-03
       0.18s (116.22 ticks) for iteration (0.03s, 2947 Mflops for lin. solve)
  12   5.7487083e+08   5.5853141e+08  1.35e+09  0.00e+00  1.64e+07  1.79e-03
       0.26s (165.11 ticks) for iteration (0.03s, 2898 Mflops for lin. solve)
  13   7.4206791e+08   7.2586841e+08  1.34e+09  0.00e+00  1.63e+07  1.42e-03
       0.29s (116.22 ticks) for iteration (0.15s, 687 Mflops for lin. solve)
  14   1.0028913e+09   9.8691428e+08  1.33e+09  0.00e+00  1.62e+07  1.07e-03
       0.25s (165.11 ticks) for iteration (0.03s, 3055 Mflops for lin. solve)
  15   1.2462010e+09   1.2304274e+09  1.31e+09  0.00e+00  1.60e+07  8.84e-04
       0.25s (165.11 ticks) for iteration (0.03s, 3064 Mflops for lin. solve)
  16   1.4472651e+09   1.4316593e+09  1.29e+09  0.00e+00  1.58e+07  7.77e-04
       0.31s (165.11 ticks) for iteration (0.03s, 2966 Mflops for lin. solve)
  17   1.7001125e+09   1.6847181e+09  1.28e+09  0.00e+00  1.56e+07  6.77e-04
       0.27s (165.11 ticks) for iteration (0.04s, 2586 Mflops for lin. solve)
  18   1.9413568e+09   1.9261647e+09  1.26e+09  0.00e+00  1.54e+07  6.08e-04
       0.26s (165.11 ticks) for iteration (0.03s, 2971 Mflops for lin. solve)
  19   2.2194260e+09   2.2044667e+09  1.24e+09  0.00e+00  1.52e+07  5.47e-04
       0.25s (165.11 ticks) for iteration (0.03s, 3075 Mflops for lin. solve)
  20   2.5655625e+09   2.5508937e+09  1.23e+09  0.00e+00  1.50e+07  4.91e-04
       0.25s (165.11 ticks) for iteration (0.03s, 3046 Mflops for lin. solve)
  21   2.9471103e+09   2.9327626e+09  1.20e+09  0.00e+00  1.47e+07  4.46e-04
       0.25s (165.11 ticks) for iteration (0.03s, 3083 Mflops for lin. solve)
  22   3.2427775e+09   3.2286784e+09  1.18e+09  0.00e+00  1.44e+07  4.19e-04
       0.25s (165.11 ticks) for iteration (0.03s, 3030 Mflops for lin. solve)
  23   3.7897592e+09   3.7761205e+09  1.16e+09  0.00e+00  1.41e+07  3.80e-04
       0.25s (165.11 ticks) for iteration (0.03s, 2999 Mflops for lin. solve)
  24   4.3180366e+09   4.3048427e+09  1.12e+09  0.00e+00  1.36e+07  3.54e-04
       0.27s (165.11 ticks) for iteration (0.03s, 3102 Mflops for lin. solve)
  25   4.9443735e+09   4.9317072e+09  1.08e+09  0.00e+00  1.32e+07  3.32e-04
       0.25s (165.11 ticks) for iteration (0.03s, 3068 Mflops for lin. solve)
  26   5.5813581e+09   5.5692269e+09  1.04e+09  0.00e+00  1.27e+07  3.16e-04
       0.25s (165.11 ticks) for iteration (0.03s, 2995 Mflops for lin. solve)
  27   6.4417360e+09   6.4303285e+09  9.94e+08  0.00e+00  1.21e+07  3.03e-04
       0.25s (165.11 ticks) for iteration (0.03s, 2952 Mflops for lin. solve)
  28   7.6637116e+09   7.6533294e+09  9.35e+08  0.00e+00  1.14e+07  2.93e-04
       0.17s (116.22 ticks) for iteration (0.03s, 3018 Mflops for lin. solve)
  29   8.3120779e+09   8.3022406e+09  8.51e+08  0.00e+00  1.04e+07  2.94e-04
       0.25s (165.11 ticks) for iteration (0.03s, 3051 Mflops for lin. solve)
  30   9.2825045e+09   9.2734814e+09  8.06e+08  0.00e+00  9.84e+06  2.98e-04
       3.58s (165.11 ticks) for iteration (3.37s, 30 Mflops for lin. solve)
  31   1.0123213e+10   1.0114895e+10  7.40e+08  0.00e+00  9.03e+06  3.06e-04
       0.24s (165.11 ticks) for iteration (0.03s, 3020 Mflops for lin. solve)
  32   1.0684667e+10   1.0676820e+10  6.82e+08  0.00e+00  8.32e+06  3.12e-04
       0.26s (165.11 ticks) for iteration (0.03s, 3048 Mflops for lin. solve)
  33   1.3479197e+10   1.3473691e+10  6.43e+08  0.00e+00  7.85e+06  3.67e-04
       0.25s (165.11 ticks) for iteration (0.03s, 3151 Mflops for lin. solve)
  34   1.4794095e+10   1.4789690e+10  4.51e+08  0.00e+00  5.51e+06  4.24e-04
       0.24s (165.11 ticks) for iteration (0.03s, 3088 Mflops for lin. solve)
  35   1.6807079e+10   1.6804359e+10  3.61e+08  0.00e+00  4.41e+06  6.13e-04
       0.24s (165.11 ticks) for iteration (0.03s, 2962 Mflops for lin. solve)
  36   1.7758555e+10   1.7756631e+10  2.23e+08  0.00e+00  2.72e+06  7.59e-04
       0.25s (165.11 ticks) for iteration (0.03s, 3131 Mflops for lin. solve)
  37   1.8598040e+10   1.8596818e+10  1.58e+08  0.00e+00  1.93e+06  1.12e-03
       0.24s (165.11 ticks) for iteration (0.03s, 3061 Mflops for lin. solve)
  38   1.9632200e+10   1.9631845e+10  1.00e+08  0.00e+00  1.22e+06  2.95e-03
       0.24s (165.11 ticks) for iteration (0.03s, 2948 Mflops for lin. solve)
  39   1.9863348e+10   1.9863187e+10  2.91e+07  0.00e+00  3.56e+05  6.26e-03
       0.24s (165.11 ticks) for iteration (0.03s, 3143 Mflops for lin. solve)
  40   1.9986676e+10   1.9986618e+10  1.33e+07  0.00e+00  1.62e+05  1.63e-02
       0.25s (165.11 ticks) for iteration (0.03s, 3021 Mflops for lin. solve)
  41   1.9988469e+10   1.9988412e+10  4.77e+06  0.00e+00  5.83e+04  1.67e-02
       0.25s (165.11 ticks) for iteration (0.03s, 3028 Mflops for lin. solve)
  42   1.9997325e+10   1.9997276e+10  4.65e+06  0.00e+00  5.68e+04  1.88e-02
       0.25s (165.11 ticks) for iteration (0.03s, 3046 Mflops for lin. solve)
  43   2.0009982e+10   2.0009943e+10  4.04e+06  0.00e+00  4.93e+04  2.33e-02
       0.24s (165.11 ticks) for iteration (0.03s, 2923 Mflops for lin. solve)
  44   2.0017439e+10   2.0017407e+10  3.17e+06  0.00e+00  3.87e+04  2.73e-02
       0.28s (165.11 ticks) for iteration (0.03s, 3000 Mflops for lin. solve)
  45   2.0042114e+10   2.0042102e+10  2.66e+06  0.00e+00  3.25e+04  7.30e-02
       0.26s (165.11 ticks) for iteration (0.03s, 2997 Mflops for lin. solve)
  46   2.0051240e+10   2.0051235e+10  9.60e+05  0.00e+00  1.17e+04  2.10e-01
       0.25s (165.11 ticks) for iteration (0.03s, 3056 Mflops for lin. solve)
  47   2.0055424e+10   2.0055423e+10  3.32e+05  0.00e+00  4.05e+03  1.59e+00
       0.25s (165.11 ticks) for iteration (0.03s, 2886 Mflops for lin. solve)
  48   2.0055977e+10   2.0055976e+10  4.36e+04  0.00e+00  5.32e+02  1.24e+01
       0.27s (165.11 ticks) for iteration (0.03s, 3065 Mflops for lin. solve)
  49   2.0056048e+10   2.0056048e+10  5.53e+03  0.00e+00  6.75e+01  1.07e+02
       0.30s (191.77 ticks) for iteration (0.03s, 2964 Mflops for lin. solve)
  50   2.0056055e+10   2.0056055e+10  6.41e+02  0.00e+00  7.81e+00  5.89e+02
       0.27s (178.25 ticks) for iteration (0.03s, 3029 Mflops for lin. solve)
  51   2.0056056e+10   2.0056056e+10  1.17e+02  0.00e+00  1.42e+00  1.04e+03
       0.17s (116.22 ticks) for iteration (0.03s, 2895 Mflops for lin. solve)
  52   2.0056056e+10   2.0056056e+10  8.41e+01  0.00e+00  8.37e-01  1.68e+03
       0.33s (193.34 ticks) for iteration (0.03s, 2991 Mflops for lin. solve)
  53   2.0056056e+10   2.0056056e+10  5.28e+01  0.00e+00  5.21e-01  3.10e+03
       0.17s (116.46 ticks) for iteration (0.03s, 3058 Mflops for lin. solve)
  54   2.0056057e+10   2.0056057e+10  4.42e+01  0.00e+00  3.28e-01  2.92e+04
       0.17s (116.09 ticks) for iteration (0.03s, 2989 Mflops for lin. solve)
  55   2.0056057e+10   2.0056057e+10  5.01e+00  0.00e+00  3.17e-02  1.18e+06
